FlOpEDT/flopmodel_INFO_-pulp.mps
*SENSE:Minimize
NAME          MODEL
ROWS
 N  OBJ
 E  C0000000
COLUMNS
    MARK      'MARKER'                 'INTORG'
    X0000000  C0000000   1.000000000000e+00
    MARK      'MARKER'                 'INTEND'
    X0000001  OBJ        1.000000000000e+00
RHS
    RHS       C0000000   1.000000000000e+00
BOUNDS
 BV BND       X0000000
 FX BND       X0000001   0.000000000000e+00
ENDATA
