FlOpEDT/flopmodel_INFO_-pulp.sol
Optimal - objective value 0.00000000
      0 C0000000               1                       0
      0 X0000000               1                       0
      1 X0000001               0                       1
